POSCAR file generated by hybridmcmd
1.0
17.494254009 0.000000 0.000000
0.000000 15.150471011 0.000000
0.000000 0.000000 18.555458792
Ni Al
324 108
Direct
0.017590 0.201926 0.055542
0.142529 0.285139 0.055541
0.267589 0.035259 0.055543
0.142540 0.118410 0.055541
0.100830 0.035284 0.166696
0.392538 0.285077 0.055540
0.392528 0.118472 0.055541
0.350829 0.201951 0.166695
0.225894 0.285155 0.166630
0.225916 0.118427 0.166664
0.184286 0.201821 0.277781
0.059307 0.285157 0.277755
0.059308 0.118453 0.277784
0.475915 0.285094 0.166664
0.309308 0.285121 0.277784
0.475893 0.118488 0.166630
0.434284 0.035154 0.277781
0.309307 0.118491 0.277755
0.017590 0.201926 0.388876
0.142529 0.285139 0.388874
0.267590 0.035259 0.388875
0.142540 0.118410 0.388875
0.100830 0.035284 0.500030
0.392541 0.285078 0.388875
0.392529 0.118472 0.388873
0.350830 0.201951 0.500030
0.225894 0.285155 0.499964
0.225915 0.118426 0.499998
0.184285 0.201821 0.611115
0.059306 0.285158 0.611089
0.059307 0.118454 0.611119
0.475916 0.285094 0.499998
0.309309 0.285121 0.611119
0.475894 0.118489 0.499963
0.434285 0.035154 0.611115
0.309307 0.118490 0.611089
0.017590 0.201927 0.722210
0.142528 0.285139 0.722209
0.267590 0.035259 0.722210
0.142540 0.118411 0.722208
0.100830 0.035285 0.833364
0.392540 0.285076 0.722209
0.392529 0.118472 0.722209
0.350830 0.201951 0.833363
0.225892 0.285154 0.833296
0.225916 0.118427 0.833333
0.184285 0.201820 0.944448
0.059306 0.285156 0.944422
0.059308 0.118454 0.944452
0.475915 0.285093 0.833332
0.309306 0.285117 0.944449
0.475893 0.118488 0.833297
0.434285 0.035155 0.944448
0.309307 0.118489 0.944422
0.017590 0.535259 0.055543
0.142529 0.618473 0.055541
0.267590 0.368593 0.055542
0.142540 0.451744 0.055540
0.100830 0.368618 0.166696
0.392540 0.618411 0.055541
0.392527 0.451806 0.055541
0.350830 0.535285 0.166696
0.225894 0.618488 0.166630
0.225916 0.451760 0.166664
0.184285 0.535155 0.277781
0.059307 0.618491 0.277755
0.059308 0.451788 0.277785
0.475915 0.618428 0.166665
0.309308 0.618455 0.277785
0.475894 0.451821 0.166631
0.434286 0.368488 0.277781
0.309307 0.451825 0.277755
0.017589 0.535260 0.388876
0.142529 0.618473 0.388874
0.267590 0.368593 0.388876
0.142540 0.451744 0.388875
0.100829 0.368618 0.500030
0.392540 0.618411 0.388874
0.392529 0.451806 0.388874
0.350830 0.535284 0.500030
0.225894 0.618488 0.499963
0.225916 0.451761 0.499998
0.184285 0.535154 0.611114
0.059307 0.618491 0.611089
0.059307 0.451788 0.611118
0.475915 0.618427 0.499997
0.309308 0.618453 0.611118
0.475894 0.451821 0.499964
0.434285 0.368486 0.611115
0.309307 0.451824 0.611089
0.017590 0.535259 0.722209
0.142529 0.618473 0.722207
0.267590 0.368593 0.722209
0.142540 0.451744 0.722208
0.100829 0.368617 0.833363
0.392540 0.618410 0.722208
0.392529 0.451805 0.722208
0.350829 0.535284 0.833363
0.225894 0.618488 0.833297
0.225916 0.451761 0.833331
0.184285 0.535154 0.944448
0.059307 0.618490 0.944422
0.059308 0.451786 0.944451
0.475914 0.618427 0.833331
0.309308 0.618454 0.944452
0.475893 0.451821 0.833297
0.434284 0.368487 0.944448
0.309307 0.451823 0.944422
0.017591 0.868592 0.055544
0.142529 0.951806 0.055542
0.267590 0.701927 0.055543
0.142540 0.785077 0.055542
0.100830 0.701952 0.166696
0.392539 0.951744 0.055541
0.392528 0.785140 0.055541
0.350829 0.868618 0.166696
0.225894 0.951821 0.166631
0.225916 0.785094 0.166665
0.184286 0.868487 0.277781
0.059307 0.951824 0.277755
0.059307 0.785121 0.277784
0.475915 0.951761 0.166664
0.309308 0.951787 0.277784
0.475893 0.785155 0.166630
0.434285 0.701822 0.277781
0.309307 0.785158 0.277755
0.017590 0.868592 0.388875
0.142529 0.951806 0.388874
0.267590 0.701926 0.388876
0.142541 0.785077 0.388875
0.100830 0.701951 0.500030
0.392540 0.951744 0.388874
0.392528 0.785139 0.388874
0.350829 0.868618 0.500029
0.225893 0.951821 0.499963
0.225915 0.785093 0.499998
0.184285 0.868488 0.611114
0.059308 0.951824 0.611089
0.059308 0.785120 0.611118
0.475916 0.951760 0.499997
0.309307 0.951786 0.611118
0.475893 0.785154 0.499963
0.434285 0.701820 0.611114
0.309307 0.785156 0.611089
0.017591 0.868593 0.722210
0.142528 0.951806 0.722209
0.267589 0.701926 0.722209
0.142540 0.785077 0.722208
0.100830 0.701951 0.833363
0.392540 0.951744 0.722208
0.392528 0.785138 0.722208
0.350830 0.868618 0.833363
0.225894 0.951821 0.833298
0.225916 0.785094 0.833332
0.184285 0.868487 0.944449
0.059307 0.951824 0.944423
0.059308 0.785121 0.944452
0.475915 0.951762 0.833331
0.309308 0.951788 0.944452
0.475893 0.785155 0.833297
0.434284 0.701822 0.944448
0.309307 0.785158 0.944423
0.517589 0.201926 0.055543
0.642528 0.285139 0.055541
0.767589 0.035260 0.055543
0.642540 0.118411 0.055541
0.600829 0.035285 0.166696
0.892540 0.285077 0.055541
0.892529 0.118472 0.055541
0.850830 0.201951 0.166696
0.725893 0.285155 0.166631
0.725915 0.118427 0.166664
0.684284 0.201822 0.277781
0.559307 0.285158 0.277755
0.559307 0.118454 0.277783
0.975916 0.285093 0.166664
0.809307 0.285121 0.277785
0.975894 0.118488 0.166630
0.934285 0.035154 0.277781
0.809307 0.118491 0.277756
0.517590 0.201927 0.388876
0.642528 0.285139 0.388874
0.767589 0.035260 0.388876
0.642539 0.118411 0.388874
0.600829 0.035285 0.500029
0.892539 0.285077 0.388874
0.892528 0.118472 0.388874
0.850829 0.201952 0.500029
0.725893 0.285155 0.499964
0.725915 0.118428 0.499997
0.684284 0.201821 0.611115
0.559306 0.285157 0.611089
0.559307 0.118454 0.611118
0.975915 0.285094 0.499998
0.809307 0.285121 0.611119
0.975894 0.118488 0.499964
0.934285 0.035155 0.611115
0.809306 0.118491 0.611089
0.517590 0.201925 0.722210
0.642529 0.285138 0.722209
0.767589 0.035260 0.722210
0.642539 0.118410 0.722208
0.600829 0.035284 0.833363
0.892540 0.285077 0.722208
0.892528 0.118473 0.722209
0.850829 0.201951 0.833363
0.725893 0.285154 0.833297
0.725916 0.118427 0.833332
0.684285 0.201821 0.944448
0.559307 0.285157 0.944422
0.559307 0.118454 0.944451
0.975915 0.285093 0.833332
0.809307 0.285120 0.944452
0.975894 0.118488 0.833298
0.934286 0.035154 0.944449
0.809306 0.118490 0.944422
0.517590 0.535259 0.055544
0.642528 0.618472 0.055542
0.767589 0.368592 0.055543
0.642540 0.451744 0.055542
0.600830 0.368618 0.166696
0.892539 0.618410 0.055541
0.892528 0.451805 0.055542
0.850829 0.535284 0.166696
0.725893 0.618488 0.166630
0.725915 0.451760 0.166665
0.684284 0.535154 0.277781
0.559307 0.618491 0.277755
0.559307 0.451788 0.277785
0.975916 0.618428 0.166665
0.809308 0.618454 0.277785
0.975894 0.451821 0.166631
0.934284 0.368487 0.277781
0.809306 0.451824 0.277756
0.517590 0.535260 0.388876
0.642528 0.618473 0.388874
0.767589 0.368593 0.388876
0.642540 0.451744 0.388875
0.600829 0.368618 0.500030
0.892540 0.618411 0.388875
0.892528 0.451806 0.388875
0.850829 0.535284 0.500029
0.725893 0.618488 0.499964
0.725916 0.451760 0.499998
0.684285 0.535154 0.611114
0.559306 0.618490 0.611089
0.559307 0.451787 0.611119
0.975915 0.618427 0.499997
0.809308 0.618454 0.611118
0.975894 0.451821 0.499964
0.934285 0.368488 0.611115
0.809306 0.451824 0.611089
0.517590 0.535259 0.722210
0.642528 0.618471 0.722208
0.767589 0.368592 0.722210
0.642540 0.451743 0.722208
0.600830 0.368617 0.833363
0.892540 0.618410 0.722208
0.892528 0.451805 0.722208
0.850829 0.535284 0.833363
0.725893 0.618487 0.833297
0.725915 0.451759 0.833332
0.684285 0.535153 0.944449
0.559307 0.618490 0.944423
0.559307 0.451786 0.944452
0.975916 0.618427 0.833331
0.809307 0.618453 0.944452
0.975893 0.451821 0.833296
0.934285 0.368487 0.944448
0.809307 0.451823 0.944422
0.517589 0.868593 0.055543
0.642528 0.951806 0.055541
0.767589 0.701926 0.055542
0.642539 0.785077 0.055541
0.600829 0.701952 0.166696
0.892541 0.951744 0.055542
0.892530 0.785139 0.055542
0.850830 0.868618 0.166697
0.725894 0.951822 0.166630
0.725914 0.785094 0.166665
0.684284 0.868488 0.277781
0.559306 0.951824 0.277755
0.559307 0.785121 0.277784
0.975916 0.951760 0.166664
0.809307 0.951788 0.277784
0.975894 0.785155 0.166631
0.934286 0.701821 0.277781
0.809307 0.785158 0.277756
0.517589 0.868593 0.388875
0.642528 0.951806 0.388873
0.767589 0.701926 0.388876
0.642539 0.785077 0.388874
0.600829 0.701951 0.500029
0.892540 0.951744 0.388875
0.892529 0.785139 0.388874
0.850829 0.868618 0.500029
0.725894 0.951822 0.499964
0.725916 0.785094 0.499997
0.684285 0.868488 0.611114
0.559307 0.951824 0.611088
0.559307 0.785120 0.611117
0.975915 0.951760 0.499998
0.809307 0.951788 0.611118
0.975893 0.785154 0.499964
0.934285 0.701821 0.611114
0.809307 0.785158 0.611088
0.517589 0.868593 0.722209
0.642529 0.951806 0.722208
0.767590 0.701926 0.722209
0.642540 0.785077 0.722207
0.600829 0.701951 0.833363
0.892540 0.951744 0.722208
0.892529 0.785139 0.722207
0.850829 0.868618 0.833363
0.725893 0.951821 0.833297
0.725916 0.785094 0.833332
0.684285 0.868488 0.944448
0.559306 0.951824 0.944422
0.559307 0.785121 0.944452
0.975916 0.951761 0.833332
0.809307 0.951788 0.944452
0.975894 0.785155 0.833298
0.934285 0.701820 0.944448
0.809306 0.785157 0.944422
0.017517 0.035207 0.055573
0.267516 0.201870 0.055571
0.100930 0.201836 0.166689
0.184319 0.035100 0.277797
0.434319 0.201768 0.277797
0.017516 0.035204 0.388904
0.100930 0.201839 0.500024
0.350931 0.035172 0.500024
0.184319 0.035103 0.611133
0.434321 0.201769 0.611134
0.017517 0.035207 0.722240
0.267518 0.201872 0.722240
0.100931 0.201839 0.833359
0.350931 0.035173 0.833358
0.184320 0.035102 0.944468
0.434319 0.201768 0.944465
0.017516 0.368538 0.055571
0.267516 0.535207 0.055573
0.100931 0.535173 0.166691
0.350931 0.368505 0.166690
0.184319 0.368436 0.277799
0.434319 0.535103 0.277799
0.017515 0.368539 0.388906
0.267517 0.535208 0.388906
0.350931 0.368505 0.500025
0.184320 0.368436 0.611132
0.434319 0.535102 0.611133
0.017516 0.368540 0.722240
0.267516 0.535206 0.722239
0.100931 0.535172 0.833357
0.350931 0.368504 0.833357
0.184319 0.368434 0.944465
0.434318 0.535101 0.944466
0.017517 0.701873 0.055573
0.267517 0.868541 0.055574
0.100932 0.868507 0.166692
0.350931 0.701841 0.166691
0.184319 0.701771 0.277799
0.434318 0.868436 0.277798
0.017517 0.701874 0.388906
0.267515 0.868537 0.388904
0.100930 0.868502 0.500022
0.350930 0.701839 0.500023
0.184319 0.701768 0.611132
0.434317 0.868436 0.611132
0.017516 0.701872 0.722239
0.267517 0.868540 0.722239
0.100932 0.868505 0.833359
0.434318 0.868437 0.944466
0.517515 0.035206 0.055572
0.767514 0.201872 0.055572
0.600930 0.201838 0.166689
0.850930 0.035172 0.166690
0.684317 0.035102 0.277798
0.934319 0.201769 0.277798
0.517515 0.035206 0.388904
0.767515 0.201874 0.388906
0.600931 0.201841 0.500024
0.850929 0.035173 0.500024
0.684318 0.035104 0.611132
0.934318 0.201771 0.611132
0.517516 0.035207 0.722240
0.767514 0.201873 0.722240
0.600929 0.201837 0.833358
0.850930 0.035172 0.833359
0.684318 0.035104 0.944466
0.934320 0.201768 0.944466
0.517515 0.368538 0.055572
0.767515 0.535205 0.055573
0.600929 0.535172 0.166691
0.850929 0.368504 0.166691
0.684318 0.368435 0.277799
0.934319 0.535103 0.277799
0.517517 0.368540 0.388906
0.600930 0.535170 0.500023
0.850929 0.368505 0.500024
0.684319 0.368435 0.611132
0.934319 0.535102 0.611132
0.517515 0.368537 0.722240
0.767516 0.535203 0.722238
0.600929 0.535170 0.833358
0.850930 0.368503 0.833357
0.684319 0.368433 0.944466
0.934319 0.535101 0.944465
0.517515 0.701873 0.055573
0.600929 0.868506 0.166690
0.850930 0.701840 0.166691
0.684319 0.701770 0.277799
0.934319 0.868436 0.277799
0.517515 0.701872 0.388904
0.767516 0.868538 0.388905
0.850930 0.701838 0.500023
0.684318 0.701768 0.611131
0.934319 0.868435 0.611131
0.517515 0.701873 0.722239
0.767515 0.868540 0.722239
0.600929 0.868506 0.833358
0.850931 0.701838 0.833358
0.684318 0.701769 0.944467
0.934319 0.868436 0.944467
0.267517 0.201873 0.388906
0.350929 0.701839 0.833358
0.767515 0.535206 0.388906
0.600930 0.868505 0.500022
0.350929 0.035170 0.166689
0.100931 0.535173 0.500025
0.184319 0.701769 0.944467
0.767515 0.868541 0.055574